32      4       
10      10      10      10      
0       0       0       0       0       6       2       3       4       5       6       7       
6       1       0       1       1       5       8       9       10      11      12      
9       0       1       4       2       4       8       10      11      12      
9       3       0       6       3       4       9       10      11      12      
8       0       4       4       3       4       8       10      12      15      
7       5       0       3       5       3       8       10      11      
1       0       4       5       4       3       8       10      11      
9       2       6       0       2       4       13      14      16      17      
1       0       4       3       5       4       13      14      15      16      
8       7       4       3       0       3       13      16      17      
7       0       1       5       1       3       14      15      17      
2       6       6       6       0       3       13      14      16      
8       3       5       0       5       6       18      19      20      21      23      24      
2       2       4       0       5       5       19      20      22      23      24      
3       8       0       3       3       5       18      20      21      22      24      
9       6       0       3       5       4       18      19      23      24      
4       3       0       4       5       4       18      19      20      22      
2       0       5       4       3       3       25      26      31      
2       3       6       0       6       3       25      26      31      
2       8       0       4       4       3       25      26      31      
1       4       4       0       5       3       25      26      31      
7       0       3       2       5       3       25      28      31      
4       0       4       8       7       3       25      28      31      
9       2       3       0       4       2       25      28      
7       0       4       5       6       3       27      29      30      
7       0       9       3       5       2       27      28      
10      1       2       0       2       1       32      
3       0       3       1       4       1       32      
2       2       4       8       0       1       32      
4       5       0       3       5       1       32      
6       5       2       0       3       1       32      
0       0       0       0       0       0       
